NAME 
ROWS
 N  OBJ
 G  R0      
 G  R1      
 G  R2      
 G  R3      
 G  R4      
 G  R5      
 G  R6      
 G  R7      
 G  R8      
COLUMNS
    x0        OBJ       1
    x0        R0        1
    x0        R1        1
    x0        R2        1
    x0        R3        1
    x0        R6        1
    x1        OBJ       1
    x1        R0        1
    x1        R1        1
    x1        R2        1
    x1        R4        1
    x1        R7        1
    x2        OBJ       1
    x2        R0        1
    x2        R1        1
    x2        R2        1
    x2        R5        1
    x2        R8        1
    x3        OBJ       1
    x3        R0        1
    x3        R3        1
    x3        R4        1
    x3        R5        1
    x3        R6        1
    x4        OBJ       1
    x4        R1        1
    x4        R3        1
    x4        R4        1
    x4        R5        1
    x4        R7        1
    x5        OBJ       1
    x5        R2        1
    x5        R3        1
    x5        R4        1
    x5        R5        1
    x5        R8        1
    x6        OBJ       1
    x6        R0        1
    x6        R3        1
    x6        R6        1
    x6        R7        1
    x6        R8        1
    x7        OBJ       1
    x7        R1        1
    x7        R4        1
    x7        R6        1
    x7        R7        1
    x7        R8        1
    x8        OBJ       1
    x8        R2        1
    x8        R5        1
    x8        R6        1
    x8        R7        1
    x8        R8        1
RHS
    RHS1      R0        1
    RHS1      R1        1
    RHS1      R2        1
    RHS1      R3        1
    RHS1      R4        1
    RHS1      R5        1
    RHS1      R6        1
    RHS1      R7        1
    RHS1      R8        1
BOUNDS
 UP BND1      x0        1
 UP BND1      x1        1
 UP BND1      x2        1
 UP BND1      x3        1
 UP BND1      x4        1
 UP BND1      x5        1
 UP BND1      x6        1
 UP BND1      x7        1
 UP BND1      x8        1
ENDATA
